p ds 20 5
1 6
1 7
1 9
1 10
1 11
1 12
1 14
1 18
1 19
1 20
2 3
2 5
2 10
2 14
2 17
3 9
3 10
3 13
3 15
3 16
3 18
3 20
4 5
4 6
4 7
4 8
4 9
4 10
4 11
4 12
4 13
4 17
4 18
4 19
4 20
5 6
5 8
5 11
5 12
5 14
5 15
5 16
6 11
6 12
6 13
6 19
7 10
7 11
7 14
7 15
7 16
7 17
7 18
7 20
8 9
8 10
8 15
8 17
8 18
8 20
9 10
9 11
9 15
9 16
9 18
9 20
10 11
10 14
10 15
10 16
10 18
10 19
10 20
11 12
11 16
11 17
11 18
12 13
12 15
12 17
12 18
12 20
13 17
13 18
13 19
13 20
14 19
15 16
17 19
19 20
